p tw 176 39601 2 
1 89 
1 91 
1 94 
1 95 
1 97 
1 99 
1 101 
1 103 
1 105 
1 108 
1 109 
1 112 
1 114 
1 116 
1 118 
1 120 
1 122 
1 124 
1 125 
1 127 
1 130 
1 132 
1 133 
1 136 
1 138 
1 139 
1 141 
1 144 
1 146 
1 147 
1 150 
1 152 
1 154 
1 156 
1 157 
1 160 
1 161 
1 163 
1 165 
1 168 
1 169 
1 171 
1 173 
1 175 
2 90 
2 92 
2 93 
2 96 
2 98 
2 100 
2 102 
2 104 
2 106 
2 107 
2 110 
2 111 
2 113 
2 115 
2 117 
2 119 
2 121 
2 123 
2 126 
2 128 
2 129 
2 131 
2 134 
2 135 
2 137 
2 140 
2 142 
2 143 
2 145 
2 148 
2 149 
2 151 
2 153 
2 155 
2 158 
2 159 
2 162 
2 164 
2 166 
2 167 
2 170 
2 172 
2 174 
2 176 
3 4 
3 90 
3 92 
3 93 
3 95 
3 98 
3 99 
3 102 
3 103 
3 105 
3 107 
3 110 
3 112 
3 113 
3 115 
3 117 
3 120 
3 122 
3 123 
3 125 
3 127 
3 129 
3 131 
3 134 
3 136 
3 137 
3 139 
3 141 
3 143 
3 146 
3 147 
3 149 
3 152 
3 153 
3 155 
3 157 
3 159 
3 161 
3 163 
3 165 
3 167 
3 169 
3 172 
3 173 
3 175 
4 89 
4 91 
4 94 
4 96 
4 97 
4 100 
4 101 
4 104 
4 106 
4 108 
4 109 
4 111 
4 114 
4 116 
4 118 
4 119 
4 121 
4 124 
4 126 
4 128 
4 130 
4 132 
4 133 
4 135 
4 138 
4 140 
4 142 
4 144 
4 145 
4 148 
4 150 
4 151 
4 154 
4 156 
4 158 
4 160 
4 162 
4 164 
4 166 
4 168 
4 170 
4 171 
4 174 
4 176 
5 6 
5 90 
5 91 
5 93 
5 96 
5 97 
5 99 
5 102 
5 103 
5 105 
5 108 
5 110 
5 111 
5 114 
5 115 
5 118 
5 120 
5 122 
5 124 
5 125 
5 127 
5 129 
5 131 
5 134 
5 135 
5 138 
5 140 
5 142 
5 144 
5 145 
5 148 
5 149 
5 151 
5 154 
5 155 
5 158 
5 159 
5 161 
5 164 
5 166 
5 168 
5 169 
5 171 
5 173 
5 175 
6 89 
6 92 
6 94 
6 95 
6 98 
6 100 
6 101 
6 104 
6 106 
6 107 
6 109 
6 112 
6 113 
6 116 
6 117 
6 119 
6 121 
6 123 
6 126 
6 128 
6 130 
6 132 
6 133 
6 136 
6 137 
6 139 
6 141 
6 143 
6 146 
6 147 
6 150 
6 152 
6 153 
6 156 
6 157 
6 160 
6 162 
6 163 
6 165 
6 167 
6 170 
6 172 
6 174 
6 176 
7 8 
7 89 
7 91 
7 94 
7 96 
7 97 
7 99 
7 102 
7 103 
7 106 
7 107 
7 109 
7 111 
7 114 
7 115 
7 118 
7 120 
7 121 
7 124 
7 126 
7 128 
7 129 
7 131 
7 134 
7 136 
7 137 
7 139 
7 141 
7 143 
7 145 
7 147 
7 150 
7 152 
7 153 
7 156 
7 158 
7 160 
7 161 
7 164 
7 166 
7 167 
7 169 
7 172 
7 174 
7 175 
8 90 
8 92 
8 93 
8 95 
8 98 
8 100 
8 101 
8 104 
8 105 
8 108 
8 110 
8 112 
8 113 
8 116 
8 117 
8 119 
8 122 
8 123 
8 125 
8 127 
8 130 
8 132 
8 133 
8 135 
8 138 
8 140 
8 142 
8 144 
8 146 
8 148 
8 149 
8 151 
8 154 
8 155 
8 157 
8 159 
8 162 
8 163 
8 165 
8 168 
8 170 
8 171 
8 173 
8 176 
9 10 
9 89 
9 91 
9 93 
9 95 
9 98 
9 100 
9 101 
9 104 
9 105 
9 108 
9 110 
9 112 
9 114 
9 115 
9 117 
9 119 
9 121 
9 124 
9 126 
9 127 
9 129 
9 131 
9 134 
9 136 
9 138 
9 139 
9 142 
9 144 
9 145 
9 147 
9 149 
9 152 
9 153 
9 156 
9 158 
9 160 
9 162 
9 164 
9 165 
9 168 
9 170 
9 172 
9 173 
9 175 
10 90 
10 92 
10 94 
10 96 
10 97 
10 99 
10 102 
10 103 
10 106 
10 107 
10 109 
10 111 
10 113 
10 116 
10 118 
10 120 
10 122 
10 123 
10 125 
10 128 
10 130 
10 132 
10 133 
10 135 
10 137 
10 140 
10 141 
10 143 
10 146 
10 148 
10 150 
10 151 
10 154 
10 155 
10 157 
10 159 
10 161 
10 163 
10 166 
10 167 
10 169 
10 171 
10 174 
10 176 
11 12 
11 90 
11 92 
11 94 
11 96 
11 98 
11 100 
11 102 
11 103 
11 106 
11 107 
11 110 
11 112 
11 114 
11 116 
11 118 
11 120 
11 122 
11 124 
11 126 
11 128 
11 129 
11 131 
11 133 
11 136 
11 138 
11 140 
11 141 
11 144 
11 146 
11 147 
11 149 
11 152 
11 154 
11 156 
11 158 
11 159 
11 162 
11 163 
11 166 
11 168 
11 170 
11 172 
11 173 
11 176 
12 89 
12 91 
12 93 
12 95 
12 97 
12 99 
12 101 
12 104 
12 105 
12 108 
12 109 
12 111 
12 113 
12 115 
12 117 
12 119 
12 121 
12 123 
12 125 
12 127 
12 130 
12 132 
12 134 
12 135 
12 137 
12 139 
12 142 
12 143 
12 145 
12 148 
12 150 
12 151 
12 153 
12 155 
12 157 
12 160 
12 161 
12 164 
12 165 
12 167 
12 169 
12 171 
12 174 
12 175 
13 14 
13 89 
13 91 
13 94 
13 95 
13 97 
13 99 
13 102 
13 103 
13 105 
13 107 
13 110 
13 111 
13 114 
13 116 
13 118 
13 119 
13 122 
13 123 
13 125 
13 128 
13 129 
13 132 
13 134 
13 135 
13 137 
13 139 
13 142 
13 144 
13 146 
13 148 
13 149 
13 151 
13 153 
13 156 
13 158 
13 160 
13 162 
13 163 
13 165 
13 167 
13 170 
13 172 
13 173 
13 176 
14 90 
14 92 
14 93 
14 96 
14 98 
14 100 
14 101 
14 104 
14 106 
14 108 
14 109 
14 112 
14 113 
14 115 
14 117 
14 120 
14 121 
14 124 
14 126 
14 127 
14 130 
14 131 
14 133 
14 136 
14 138 
14 140 
14 141 
14 143 
14 145 
14 147 
14 150 
14 152 
14 154 
14 155 
14 157 
14 159 
14 161 
14 164 
14 166 
14 168 
14 169 
14 171 
14 174 
14 175 
15 16 
15 90 
15 92 
15 93 
15 95 
15 97 
15 99 
15 102 
15 103 
15 106 
15 108 
15 109 
15 112 
15 113 
15 116 
15 118 
15 119 
15 121 
15 123 
15 125 
15 128 
15 130 
15 131 
15 134 
15 136 
15 137 
15 139 
15 142 
15 144 
15 145 
15 147 
15 149 
15 152 
15 154 
15 155 
15 158 
15 160 
15 162 
15 163 
15 166 
15 168 
15 170 
15 171 
15 174 
15 175 
16 89 
16 91 
16 94 
16 96 
16 98 
16 100 
16 101 
16 104 
16 105 
16 107 
16 110 
16 111 
16 114 
16 115 
16 117 
16 120 
16 122 
16 124 
16 126 
16 127 
16 129 
16 132 
16 133 
16 135 
16 138 
16 140 
16 141 
16 143 
16 146 
16 148 
16 150 
16 151 
16 153 
16 156 
16 157 
16 159 
16 161 
16 164 
16 165 
16 167 
16 169 
16 172 
16 173 
16 176 
17 18 
17 89 
17 91 
17 93 
17 95 
17 97 
17 99 
17 102 
17 103 
17 106 
17 107 
17 110 
17 112 
17 113 
17 115 
17 118 
17 120 
17 121 
17 123 
17 126 
17 127 
17 130 
17 131 
17 133 
17 135 
17 138 
17 140 
17 142 
17 144 
17 145 
17 148 
17 150 
17 152 
17 153 
17 156 
17 157 
17 159 
17 161 
17 163 
17 165 
17 168 
17 170 
17 172 
17 174 
17 176 
18 90 
18 92 
18 94 
18 96 
18 98 
18 100 
18 101 
18 104 
18 105 
18 108 
18 109 
18 111 
18 114 
18 116 
18 117 
18 119 
18 122 
18 124 
18 125 
18 128 
18 129 
18 132 
18 134 
18 136 
18 137 
18 139 
18 141 
18 143 
18 146 
18 147 
18 149 
18 151 
18 154 
18 155 
18 158 
18 160 
18 162 
18 164 
18 166 
18 167 
18 169 
18 171 
18 173 
18 175 
19 20 
19 90 
19 91 
19 94 
19 96 
19 98 
19 99 
19 101 
19 103 
19 105 
19 107 
19 109 
19 112 
19 113 
19 115 
19 118 
19 119 
19 122 
19 123 
19 126 
19 127 
19 129 
19 132 
19 133 
19 135 
19 138 
19 139 
19 142 
19 144 
19 146 
19 147 
19 150 
19 152 
19 153 
19 155 
19 158 
19 159 
19 162 
19 164 
19 166 
19 167 
19 170 
19 171 
19 174 
19 175 
20 89 
20 92 
20 93 
20 95 
20 97 
20 100 
20 102 
20 104 
20 106 
20 108 
20 110 
20 111 
20 114 
20 116 
20 117 
20 120 
20 121 
20 124 
20 125 
20 128 
20 130 
20 131 
20 134 
20 136 
20 137 
20 140 
20 141 
20 143 
20 145 
20 148 
20 149 
20 151 
20 154 
20 156 
20 157 
20 160 
20 161 
20 163 
20 165 
20 168 
20 169 
20 172 
20 173 
20 176 
21 22 
21 89 
21 91 
21 94 
21 96 
21 98 
21 99 
21 102 
21 103 
21 105 
21 108 
21 110 
21 112 
21 113 
21 116 
21 117 
21 119 
21 121 
21 123 
21 126 
21 128 
21 130 
21 131 
21 134 
21 135 
21 138 
21 140 
21 142 
21 143 
21 146 
21 147 
21 149 
21 152 
21 154 
21 156 
21 157 
21 160 
21 161 
21 164 
21 166 
21 167 
21 169 
21 171 
21 173 
21 176 
22 90 
22 92 
22 93 
22 95 
22 97 
22 100 
22 101 
22 104 
22 106 
22 107 
22 109 
22 111 
22 114 
22 115 
22 118 
22 120 
22 122 
22 124 
22 125 
22 127 
22 129 
22 132 
22 133 
22 136 
22 137 
22 139 
22 141 
22 144 
22 145 
22 148 
22 150 
22 151 
22 153 
22 155 
22 158 
22 159 
22 162 
22 163 
22 165 
22 168 
22 170 
22 172 
22 174 
22 175 
23 24 
23 89 
23 91 
23 93 
23 96 
23 97 
23 100 
23 101 
23 104 
23 105 
23 107 
23 110 
23 111 
23 113 
23 116 
23 118 
23 120 
23 121 
23 123 
23 126 
23 127 
23 129 
23 131 
23 134 
23 136 
23 137 
23 140 
23 141 
23 144 
23 146 
23 148 
23 150 
23 152 
23 154 
23 155 
23 157 
23 160 
23 162 
23 163 
23 166 
23 167 
23 170 
23 171 
23 173 
23 175 
24 90 
24 92 
24 94 
24 95 
24 98 
24 99 
24 102 
24 103 
24 106 
24 108 
24 109 
24 112 
24 114 
24 115 
24 117 
24 119 
24 122 
24 124 
24 125 
24 128 
24 130 
24 132 
24 133 
24 135 
24 138 
24 139 
24 142 
24 143 
24 145 
24 147 
24 149 
24 151 
24 153 
24 156 
24 158 
24 159 
24 161 
24 164 
24 165 
24 168 
24 169 
24 172 
24 174 
24 176 
25 26 
25 90 
25 91 
25 93 
25 95 
25 98 
25 100 
25 102 
25 104 
25 105 
25 107 
25 109 
25 112 
25 114 
25 115 
25 118 
25 119 
25 121 
25 124 
25 125 
25 128 
25 129 
25 132 
25 133 
25 135 
25 137 
25 140 
25 142 
25 144 
25 145 
25 147 
25 150 
25 152 
25 154 
25 155 
25 157 
25 160 
25 161 
25 163 
25 166 
25 167 
25 169 
25 172 
25 173 
25 176 
26 89 
26 92 
26 94 
26 96 
26 97 
26 99 
26 101 
26 103 
26 106 
26 108 
26 110 
26 111 
26 113 
26 116 
26 117 
26 120 
26 122 
26 123 
26 126 
26 127 
26 130 
26 131 
26 134 
26 136 
26 138 
26 139 
26 141 
26 143 
26 146 
26 148 
26 149 
26 151 
26 153 
26 156 
26 158 
26 159 
26 162 
26 164 
26 165 
26 168 
26 170 
26 171 
26 174 
26 175 
27 28 
27 89 
27 92 
27 93 
27 96 
27 97 
27 100 
27 102 
27 104 
27 106 
27 108 
27 109 
27 112 
27 114 
27 115 
27 118 
27 119 
27 122 
27 123 
27 125 
27 127 
27 130 
27 131 
27 134 
27 135 
27 137 
27 140 
27 141 
27 144 
27 146 
27 147 
27 150 
27 152 
27 153 
27 156 
27 158 
27 159 
27 162 
27 164 
27 165 
27 167 
27 169 
27 171 
27 173 
27 176 
28 90 
28 91 
28 94 
28 95 
28 98 
28 99 
28 101 
28 103 
28 105 
28 107 
28 110 
28 111 
28 113 
28 116 
28 117 
28 120 
28 121 
28 124 
28 126 
28 128 
28 129 
28 132 
28 133 
28 136 
28 138 
28 139 
28 142 
28 143 
28 145 
28 148 
28 149 
28 151 
28 154 
28 155 
28 157 
28 160 
28 161 
28 163 
28 166 
28 168 
28 170 
28 172 
28 174 
28 175 
29 30 
29 89 
29 91 
29 93 
29 95 
29 98 
29 100 
29 102 
29 103 
29 105 
29 107 
29 109 
29 112 
29 114 
29 116 
29 118 
29 120 
29 121 
29 124 
29 126 
29 127 
29 130 
29 131 
29 133 
29 136 
29 137 
29 139 
29 142 
29 143 
29 146 
29 148 
29 149 
29 151 
29 154 
29 155 
29 158 
29 159 
29 162 
29 164 
29 165 
29 167 
29 169 
29 171 
29 174 
29 176 
30 90 
30 92 
30 94 
30 96 
30 97 
30 99 
30 101 
30 104 
30 106 
30 108 
30 110 
30 111 
30 113 
30 115 
30 117 
30 119 
30 122 
30 123 
30 125 
30 128 
30 129 
30 132 
30 134 
30 135 
30 138 
30 140 
30 141 
30 144 
30 145 
30 147 
30 150 
30 152 
30 153 
30 156 
30 157 
30 160 
30 161 
30 163 
30 166 
30 168 
30 170 
30 172 
30 173 
30 175 
31 32 
31 89 
31 91 
31 93 
31 95 
31 98 
31 99 
31 101 
31 103 
31 106 
31 108 
31 110 
31 112 
31 113 
31 115 
31 118 
31 119 
31 121 
31 123 
31 125 
31 128 
31 129 
31 132 
31 133 
31 136 
31 137 
31 140 
31 141 
31 143 
31 146 
31 148 
31 150 
31 151 
31 154 
31 156 
31 158 
31 159 
31 162 
31 164 
31 166 
31 168 
31 169 
31 172 
31 173 
31 175 
32 90 
32 92 
32 94 
32 96 
32 97 
32 100 
32 102 
32 104 
32 105 
32 107 
32 109 
32 111 
32 114 
32 116 
32 117 
32 120 
32 122 
32 124 
32 126 
32 127 
32 130 
32 131 
32 134 
32 135 
32 138 
32 139 
32 142 
32 144 
32 145 
32 147 
32 149 
32 152 
32 153 
32 155 
32 157 
32 160 
32 161 
32 163 
32 165 
32 167 
32 170 
32 171 
32 174 
32 176 
33 34 
33 89 
33 92 
33 93 
33 96 
33 97 
33 100 
33 101 
33 103 
33 105 
33 107 
33 110 
33 112 
33 113 
33 115 
33 118 
33 120 
33 121 
33 124 
33 125 
33 128 
33 130 
33 132 
33 134 
33 135 
33 138 
33 139 
33 141 
33 144 
33 146 
33 147 
33 149 
33 151 
33 153 
33 155 
33 157 
33 160 
33 162 
33 164 
33 166 
33 168 
33 169 
33 172 
33 174 
33 176 
34 90 
34 91 
34 94 
34 95 
34 98 
34 99 
34 102 
34 104 
34 106 
34 108 
34 109 
34 111 
34 114 
34 116 
34 117 
34 119 
34 122 
34 123 
34 126 
34 127 
34 129 
34 131 
34 133 
34 136 
34 137 
34 140 
34 142 
34 143 
34 145 
34 148 
34 150 
34 152 
34 154 
34 156 
34 158 
34 159 
34 161 
34 163 
34 165 
34 167 
34 170 
34 171 
34 173 
34 175 
35 36 
35 90 
35 92 
35 93 
35 95 
35 98 
35 100 
35 101 
35 103 
35 106 
35 107 
35 110 
35 112 
35 114 
35 116 
35 118 
35 119 
35 122 
35 123 
35 126 
35 128 
35 129 
35 131 
35 134 
35 135 
35 138 
35 139 
35 141 
35 144 
35 145 
35 148 
35 150 
35 151 
35 154 
35 156 
35 157 
35 160 
35 161 
35 164 
35 165 
35 167 
35 169 
35 171 
35 174 
35 175 
36 89 
36 91 
36 94 
36 96 
36 97 
36 99 
36 102 
36 104 
36 105 
36 108 
36 109 
36 111 
36 113 
36 115 
36 117 
36 120 
36 121 
36 124 
36 125 
36 127 
36 130 
36 132 
36 133 
36 136 
36 137 
36 140 
36 142 
36 143 
36 146 
36 147 
36 149 
36 152 
36 153 
36 155 
36 158 
36 159 
36 162 
36 163 
36 166 
36 168 
36 170 
36 172 
36 173 
36 176 
37 38 
37 90 
37 91 
37 94 
37 95 
37 98 
37 100 
37 101 
37 103 
37 105 
37 108 
37 109 
37 111 
37 113 
37 116 
37 118 
37 120 
37 121 
37 123 
37 125 
37 128 
37 130 
37 131 
37 134 
37 136 
37 138 
37 140 
37 141 
37 144 
37 145 
37 147 
37 150 
37 151 
37 153 
37 155 
37 158 
37 159 
37 161 
37 164 
37 165 
37 167 
37 170 
37 172 
37 173 
37 176 
38 89 
38 92 
38 93 
38 96 
38 97 
38 99 
38 102 
38 104 
38 106 
38 107 
38 110 
38 112 
38 114 
38 115 
38 117 
38 119 
38 122 
38 124 
38 126 
38 127 
38 129 
38 132 
38 133 
38 135 
38 137 
38 139 
38 142 
38 143 
38 146 
38 148 
38 149 
38 152 
38 154 
38 156 
38 157 
38 160 
38 162 
38 163 
38 166 
38 168 
38 169 
38 171 
38 174 
38 175 
39 40 
39 90 
39 91 
39 93 
39 96 
39 97 
39 100 
39 101 
39 103 
39 106 
39 107 
39 109 
39 112 
39 113 
39 115 
39 117 
39 119 
39 122 
39 124 
39 125 
39 127 
39 130 
39 131 
39 134 
39 136 
39 138 
39 139 
39 142 
39 143 
39 146 
39 148 
39 150 
39 151 
39 154 
39 156 
39 158 
39 160 
39 161 
39 163 
39 166 
39 167 
39 170 
39 172 
39 173 
39 176 
40 89 
40 92 
40 94 
40 95 
40 98 
40 99 
40 102 
40 104 
40 105 
40 108 
40 110 
40 111 
40 114 
40 116 
40 118 
40 120 
40 121 
40 123 
40 126 
40 128 
40 129 
40 132 
40 133 
40 135 
40 137 
40 140 
40 141 
40 144 
40 145 
40 147 
40 149 
40 152 
40 153 
40 155 
40 157 
40 159 
40 162 
40 164 
40 165 
40 168 
40 169 
40 171 
40 174 
40 175 
41 42 
41 89 
41 92 
41 94 
41 95 
41 98 
41 99 
41 102 
41 104 
41 105 
41 107 
41 109 
41 112 
41 113 
41 116 
41 118 
41 119 
41 122 
41 124 
41 126 
41 127 
41 130 
41 131 
41 134 
41 135 
41 138 
41 140 
41 141 
41 143 
41 145 
41 148 
41 150 
41 151 
41 153 
41 155 
41 158 
41 160 
41 162 
41 163 
41 166 
41 168 
41 169 
41 172 
41 173 
41 175 
42 90 
42 91 
42 93 
42 96 
42 97 
42 100 
42 101 
42 103 
42 106 
42 108 
42 110 
42 111 
42 114 
42 115 
42 117 
42 120 
42 121 
42 123 
42 125 
42 128 
42 129 
42 132 
42 133 
42 136 
42 137 
42 139 
42 142 
42 144 
42 146 
42 147 
42 149 
42 152 
42 154 
42 156 
42 157 
42 159 
42 161 
42 164 
42 165 
42 167 
42 170 
42 171 
42 174 
42 176 
43 44 
43 89 
43 91 
43 93 
43 95 
43 98 
43 100 
43 102 
43 103 
43 106 
43 108 
43 109 
43 111 
43 114 
43 115 
43 118 
43 119 
43 122 
43 123 
43 126 
43 127 
43 129 
43 132 
43 134 
43 136 
43 138 
43 140 
43 141 
43 143 
43 146 
43 147 
43 149 
43 151 
43 153 
43 155 
43 157 
43 160 
43 161 
43 163 
43 166 
43 168 
43 170 
43 171 
43 174 
43 176 
44 90 
44 92 
44 94 
44 96 
44 97 
44 99 
44 101 
44 104 
44 105 
44 107 
44 110 
44 112 
44 113 
44 116 
44 117 
44 120 
44 121 
44 124 
44 125 
44 128 
44 130 
44 131 
44 133 
44 135 
44 137 
44 139 
44 142 
44 144 
44 145 
44 148 
44 150 
44 152 
44 154 
44 156 
44 158 
44 159 
44 162 
44 164 
44 165 
44 167 
44 169 
44 172 
44 173 
44 175 
45 46 
45 90 
45 91 
45 94 
45 95 
45 98 
45 100 
45 101 
45 104 
45 106 
45 107 
45 109 
45 111 
45 114 
45 115 
45 118 
45 120 
45 121 
45 123 
45 125 
45 128 
45 130 
45 131 
45 134 
45 135 
45 138 
45 139 
45 142 
45 143 
45 146 
45 148 
45 149 
45 152 
45 153 
45 156 
45 157 
45 159 
45 162 
45 163 
45 166 
45 168 
45 169 
45 171 
45 173 
45 175 
46 89 
46 92 
46 93 
46 96 
46 97 
46 99 
46 102 
46 103 
46 105 
46 108 
46 110 
46 112 
46 113 
46 116 
46 117 
46 119 
46 122 
46 124 
46 126 
46 127 
46 129 
46 132 
46 133 
46 136 
46 137 
46 140 
46 141 
46 144 
46 145 
46 147 
46 150 
46 151 
46 154 
46 155 
46 158 
46 160 
46 161 
46 164 
46 165 
46 167 
46 170 
46 172 
46 174 
46 176 
47 48 
47 90 
47 91 
47 94 
47 96 
47 97 
47 100 
47 102 
47 104 
47 106 
47 107 
47 110 
47 112 
47 113 
47 116 
47 118 
47 119 
47 121 
47 123 
47 125 
47 127 
47 129 
47 132 
47 133 
47 136 
47 138 
47 139 
47 141 
47 143 
47 145 
47 148 
47 149 
47 152 
47 153 
47 155 
47 158 
47 160 
47 161 
47 164 
47 165 
47 168 
47 169 
47 171 
47 173 
47 176 
48 89 
48 92 
48 93 
48 95 
48 98 
48 99 
48 101 
48 103 
48 105 
48 108 
48 109 
48 111 
48 114 
48 115 
48 117 
48 120 
48 122 
48 124 
48 126 
48 128 
48 130 
48 131 
48 134 
48 135 
48 137 
48 140 
48 142 
48 144 
48 146 
48 147 
48 150 
48 151 
48 154 
48 156 
48 157 
48 159 
48 162 
48 163 
48 166 
48 167 
48 170 
48 172 
48 174 
48 175 
49 50 
49 90 
49 91 
49 94 
49 96 
49 97 
49 99 
49 102 
49 104 
49 105 
49 108 
49 109 
49 112 
49 114 
49 115 
49 117 
49 119 
49 121 
49 123 
49 126 
49 128 
49 129 
49 131 
49 134 
49 136 
49 138 
49 139 
49 141 
49 144 
49 146 
49 148 
49 150 
49 151 
49 154 
49 155 
49 157 
49 159 
49 162 
49 163 
49 165 
49 168 
49 169 
49 172 
49 174 
49 176 
50 89 
50 92 
50 93 
50 95 
50 98 
50 100 
50 101 
50 103 
50 106 
50 107 
50 110 
50 111 
50 113 
50 116 
50 118 
50 120 
50 122 
50 124 
50 125 
50 127 
50 130 
50 132 
50 133 
50 135 
50 137 
50 140 
50 142 
50 143 
50 145 
50 147 
50 149 
50 152 
50 153 
50 156 
50 158 
50 160 
50 161 
50 164 
50 166 
50 167 
50 170 
50 171 
50 173 
50 175 
51 52 
51 90 
51 91 
51 94 
51 95 
51 97 
51 100 
51 101 
51 103 
51 106 
51 108 
51 110 
51 112 
51 114 
51 116 
51 117 
51 119 
51 121 
51 124 
51 126 
51 127 
51 130 
51 132 
51 134 
51 135 
51 137 
51 140 
51 141 
51 144 
51 146 
51 148 
51 149 
51 152 
51 153 
51 155 
51 158 
51 159 
51 161 
51 163 
51 166 
51 167 
51 169 
51 172 
51 174 
51 175 
52 89 
52 92 
52 93 
52 96 
52 98 
52 99 
52 102 
52 104 
52 105 
52 107 
52 109 
52 111 
52 113 
52 115 
52 118 
52 120 
52 122 
52 123 
52 125 
52 128 
52 129 
52 131 
52 133 
52 136 
52 138 
52 139 
52 142 
52 143 
52 145 
52 147 
52 150 
52 151 
52 154 
52 156 
52 157 
52 160 
52 162 
52 164 
52 165 
52 168 
52 170 
52 171 
52 173 
52 176 
53 54 
53 89 
53 91 
53 94 
53 95 
53 97 
53 100 
53 102 
53 104 
53 106 
53 107 
53 109 
53 112 
53 113 
53 116 
53 117 
53 120 
53 122 
53 123 
53 125 
53 127 
53 129 
53 132 
53 134 
53 136 
53 138 
53 140 
53 142 
53 144 
53 145 
53 147 
53 149 
53 151 
53 154 
53 156 
53 157 
53 159 
53 162 
53 164 
53 166 
53 167 
53 169 
53 172 
53 174 
53 175 
54 90 
54 92 
54 93 
54 96 
54 98 
54 99 
54 101 
54 103 
54 105 
54 108 
54 110 
54 111 
54 114 
54 115 
54 118 
54 119 
54 121 
54 124 
54 126 
54 128 
54 130 
54 131 
54 133 
54 135 
54 137 
54 139 
54 141 
54 143 
54 146 
54 148 
54 150 
54 152 
54 153 
54 155 
54 158 
54 160 
54 161 
54 163 
54 165 
54 168 
54 170 
54 171 
54 173 
54 176 
55 56 
55 90 
55 91 
55 93 
55 95 
55 97 
55 99 
55 101 
55 104 
55 105 
55 107 
55 110 
55 111 
55 113 
55 115 
55 118 
55 119 
55 122 
55 124 
55 126 
55 128 
55 130 
55 132 
55 134 
55 136 
55 138 
55 140 
55 141 
55 143 
55 145 
55 147 
55 149 
55 152 
55 154 
55 156 
55 158 
55 159 
55 162 
55 163 
55 165 
55 167 
55 169 
55 171 
55 174 
55 176 
56 89 
56 92 
56 94 
56 96 
56 98 
56 100 
56 102 
56 103 
56 106 
56 108 
56 109 
56 112 
56 114 
56 116 
56 117 
56 120 
56 121 
56 123 
56 125 
56 127 
56 129 
56 131 
56 133 
56 135 
56 137 
56 139 
56 142 
56 144 
56 146 
56 148 
56 150 
56 151 
56 153 
56 155 
56 157 
56 160 
56 161 
56 164 
56 166 
56 168 
56 170 
56 172 
56 173 
56 175 
57 58 
57 90 
57 92 
57 94 
57 96 
57 98 
57 99 
57 101 
57 103 
57 106 
57 108 
57 109 
57 112 
57 113 
57 115 
57 118 
57 120 
57 121 
57 124 
57 126 
57 127 
57 129 
57 132 
57 134 
57 136 
57 137 
57 140 
57 142 
57 144 
57 145 
57 148 
57 149 
57 151 
57 153 
57 156 
57 157 
57 160 
57 162 
57 163 
57 165 
57 167 
57 169 
57 171 
57 173 
57 176 
58 89 
58 91 
58 93 
58 95 
58 97 
58 100 
58 102 
58 104 
58 105 
58 107 
58 110 
58 111 
58 114 
58 116 
58 117 
58 119 
58 122 
58 123 
58 125 
58 128 
58 130 
58 131 
58 133 
58 135 
58 138 
58 139 
58 141 
58 143 
58 146 
58 147 
58 150 
58 152 
58 154 
58 155 
58 158 
58 159 
58 161 
58 164 
58 166 
58 168 
58 170 
58 172 
58 174 
58 175 
59 60 
59 89 
59 92 
59 93 
59 96 
59 98 
59 99 
59 101 
59 104 
59 105 
59 108 
59 109 
59 112 
59 114 
59 116 
59 118 
59 120 
59 121 
59 123 
59 125 
59 127 
59 129 
59 132 
59 134 
59 135 
59 138 
59 139 
59 141 
59 143 
59 145 
59 148 
59 149 
59 152 
59 154 
59 156 
59 158 
59 159 
59 161 
59 163 
59 166 
59 167 
59 170 
59 172 
59 174 
59 176 
60 90 
60 91 
60 94 
60 95 
60 97 
60 100 
60 102 
60 103 
60 106 
60 107 
60 110 
60 111 
60 113 
60 115 
60 117 
60 119 
60 122 
60 124 
60 126 
60 128 
60 130 
60 131 
60 133 
60 136 
60 137 
60 140 
60 142 
60 144 
60 146 
60 147 
60 150 
60 151 
60 153 
60 155 
60 157 
60 160 
60 162 
60 164 
60 165 
60 168 
60 169 
60 171 
60 173 
60 175 
61 62 
61 90 
61 91 
61 94 
61 95 
61 97 
61 99 
61 101 
61 104 
61 106 
61 108 
61 110 
61 112 
61 114 
61 115 
61 118 
61 120 
61 122 
61 123 
61 126 
61 127 
61 130 
61 131 
61 133 
61 135 
61 137 
61 139 
61 141 
61 143 
61 145 
61 147 
61 149 
61 151 
61 154 
61 155 
61 157 
61 160 
61 162 
61 164 
61 166 
61 167 
61 170 
61 172 
61 173 
61 176 
62 89 
62 92 
62 93 
62 96 
62 98 
62 100 
62 102 
62 103 
62 105 
62 107 
62 109 
62 111 
62 113 
62 116 
62 117 
62 119 
62 121 
62 124 
62 125 
62 128 
62 129 
62 132 
62 134 
62 136 
62 138 
62 140 
62 142 
62 144 
62 146 
62 148 
62 150 
62 152 
62 153 
62 156 
62 158 
62 159 
62 161 
62 163 
62 165 
62 168 
62 169 
62 171 
62 174 
62 175 
63 64 
63 90 
63 92 
63 94 
63 95 
63 97 
63 99 
63 101 
63 104 
63 105 
63 107 
63 110 
63 112 
63 114 
63 116 
63 118 
63 119 
63 121 
63 124 
63 125 
63 127 
63 129 
63 131 
63 134 
63 136 
63 137 
63 140 
63 142 
63 143 
63 146 
63 147 
63 150 
63 151 
63 153 
63 156 
63 157 
63 159 
63 161 
63 164 
63 166 
63 168 
63 170 
63 171 
63 174 
63 176 
64 89 
64 91 
64 93 
64 96 
64 98 
64 100 
64 102 
64 103 
64 106 
64 108 
64 109 
64 111 
64 113 
64 115 
64 117 
64 120 
64 122 
64 123 
64 126 
64 128 
64 130 
64 132 
64 133 
64 135 
64 138 
64 139 
64 141 
64 144 
64 145 
64 148 
64 149 
64 152 
64 154 
64 155 
64 158 
64 160 
64 162 
64 163 
64 165 
64 167 
64 169 
64 172 
64 173 
64 175 
65 66 
65 90 
65 92 
65 94 
65 95 
65 98 
65 100 
65 102 
65 104 
65 105 
65 108 
65 110 
65 111 
65 113 
65 115 
65 118 
65 120 
65 122 
65 123 
65 126 
65 127 
65 130 
65 132 
65 134 
65 136 
65 137 
65 139 
65 142 
65 144 
65 146 
65 148 
65 150 
65 152 
65 154 
65 156 
65 158 
65 160 
65 161 
65 164 
65 166 
65 168 
65 169 
65 172 
65 174 
65 176 
66 89 
66 91 
66 93 
66 96 
66 97 
66 99 
66 101 
66 103 
66 106 
66 107 
66 109 
66 112 
66 114 
66 116 
66 117 
66 119 
66 121 
66 124 
66 125 
66 128 
66 129 
66 131 
66 133 
66 135 
66 138 
66 140 
66 141 
66 143 
66 145 
66 147 
66 149 
66 151 
66 153 
66 155 
66 157 
66 159 
66 162 
66 163 
66 165 
66 167 
66 170 
66 171 
66 173 
66 175 
67 68 
67 89 
67 92 
67 94 
67 95 
67 97 
67 100 
67 102 
67 104 
67 106 
67 108 
67 110 
67 112 
67 113 
67 115 
67 118 
67 120 
67 121 
67 124 
67 126 
67 128 
67 129 
67 132 
67 134 
67 135 
67 138 
67 139 
67 142 
67 143 
67 146 
67 147 
67 150 
67 151 
67 154 
67 155 
67 158 
67 159 
67 161 
67 163 
67 165 
67 167 
67 170 
67 171 
67 173 
67 175 
68 90 
68 91 
68 93 
68 96 
68 98 
68 99 
68 101 
68 103 
68 105 
68 107 
68 109 
68 111 
68 114 
68 116 
68 117 
68 119 
68 122 
68 123 
68 125 
68 127 
68 130 
68 131 
68 133 
68 136 
68 137 
68 140 
68 141 
68 144 
68 145 
68 148 
68 149 
68 152 
68 153 
68 156 
68 157 
68 160 
68 162 
68 164 
68 166 
68 168 
68 169 
68 172 
68 174 
68 176 
69 70 
69 90 
69 91 
69 93 
69 96 
69 98 
69 99 
69 102 
69 104 
69 106 
69 107 
69 109 
69 111 
69 113 
69 116 
69 118 
69 119 
69 121 
69 124 
69 126 
69 127 
69 130 
69 132 
69 134 
69 135 
69 137 
69 139 
69 141 
69 144 
69 146 
69 147 
69 149 
69 151 
69 154 
69 156 
69 157 
69 159 
69 161 
69 164 
69 165 
69 168 
69 170 
69 172 
69 173 
69 175 
70 89 
70 92 
70 94 
70 95 
70 97 
70 100 
70 101 
70 103 
70 105 
70 108 
70 110 
70 112 
70 114 
70 115 
70 117 
70 120 
70 122 
70 123 
70 125 
70 128 
70 129 
70 131 
70 133 
70 136 
70 138 
70 140 
70 142 
70 143 
70 145 
70 148 
70 150 
70 152 
70 153 
70 155 
70 158 
70 160 
70 162 
70 163 
70 166 
70 167 
70 169 
70 171 
70 174 
70 176 
71 72 
71 90 
71 91 
71 93 
71 96 
71 98 
71 99 
71 102 
71 104 
71 106 
71 108 
71 110 
71 112 
71 114 
71 116 
71 118 
71 120 
71 122 
71 124 
71 125 
71 128 
71 130 
71 132 
71 134 
71 136 
71 138 
71 140 
71 142 
71 143 
71 146 
71 148 
71 150 
71 152 
71 153 
71 155 
71 157 
71 160 
71 162 
71 164 
71 165 
71 167 
71 170 
71 172 
71 174 
71 175 
72 89 
72 92 
72 94 
72 95 
72 97 
72 100 
72 101 
72 103 
72 105 
72 107 
72 109 
72 111 
72 113 
72 115 
72 117 
72 119 
72 121 
72 123 
72 126 
72 127 
72 129 
72 131 
72 133 
72 135 
72 137 
72 139 
72 141 
72 144 
72 145 
72 147 
72 149 
72 151 
72 154 
72 156 
72 158 
72 159 
72 161 
72 163 
72 166 
72 168 
72 169 
72 171 
72 173 
72 176 
73 74 
73 90 
73 91 
73 93 
73 96 
73 97 
73 100 
73 101 
73 104 
73 105 
73 108 
73 109 
73 112 
73 113 
73 116 
73 118 
73 120 
73 122 
73 123 
73 126 
73 128 
73 129 
73 131 
73 133 
73 135 
73 137 
73 140 
73 142 
73 143 
73 146 
73 147 
73 149 
73 151 
73 153 
73 156 
73 158 
73 160 
73 161 
73 163 
73 165 
73 168 
73 169 
73 172 
73 174 
73 175 
74 89 
74 92 
74 94 
74 95 
74 98 
74 99 
74 102 
74 103 
74 106 
74 107 
74 110 
74 111 
74 114 
74 115 
74 117 
74 119 
74 121 
74 124 
74 125 
74 127 
74 130 
74 132 
74 134 
74 136 
74 138 
74 139 
74 141 
74 144 
74 145 
74 148 
74 150 
74 152 
74 154 
74 155 
74 157 
74 159 
74 162 
74 164 
74 166 
74 167 
74 170 
74 171 
74 173 
74 176 
75 76 
75 89 
75 91 
75 94 
75 96 
75 98 
75 100 
75 102 
75 104 
75 105 
75 108 
75 110 
75 112 
75 113 
75 115 
75 118 
75 119 
75 122 
75 124 
75 125 
75 128 
75 130 
75 131 
75 133 
75 136 
75 137 
75 139 
75 141 
75 144 
75 145 
75 148 
75 149 
75 151 
75 153 
75 156 
75 157 
75 159 
75 161 
75 163 
75 166 
75 167 
75 170 
75 171 
75 174 
75 175 
76 90 
76 92 
76 93 
76 95 
76 97 
76 99 
76 101 
76 103 
76 106 
76 107 
76 109 
76 111 
76 114 
76 116 
76 117 
76 120 
76 121 
76 123 
76 126 
76 127 
76 129 
76 132 
76 134 
76 135 
76 138 
76 140 
76 142 
76 143 
76 146 
76 147 
76 150 
76 152 
76 154 
76 155 
76 158 
76 160 
76 162 
76 164 
76 165 
76 168 
76 169 
76 172 
76 173 
76 176 
77 78 
77 89 
77 91 
77 94 
77 96 
77 98 
77 100 
77 101 
77 103 
77 106 
77 108 
77 110 
77 111 
77 113 
77 116 
77 118 
77 119 
77 122 
77 124 
77 125 
77 127 
77 129 
77 131 
77 134 
77 135 
77 137 
77 139 
77 142 
77 143 
77 145 
77 147 
77 150 
77 152 
77 154 
77 155 
77 157 
77 159 
77 162 
77 163 
77 165 
77 168 
77 169 
77 172 
77 174 
77 176 
78 90 
78 92 
78 93 
78 95 
78 97 
78 99 
78 102 
78 104 
78 105 
78 107 
78 109 
78 112 
78 114 
78 115 
78 117 
78 120 
78 121 
78 123 
78 126 
78 128 
78 130 
78 132 
78 133 
78 136 
78 138 
78 140 
78 141 
78 144 
78 146 
78 148 
78 149 
78 151 
78 153 
78 156 
78 158 
78 160 
78 161 
78 164 
78 166 
78 167 
78 170 
78 171 
78 173 
78 175 
79 80 
79 89 
79 92 
79 94 
79 96 
79 97 
79 100 
79 101 
79 103 
79 105 
79 107 
79 109 
79 112 
79 114 
79 115 
79 118 
79 119 
79 122 
79 123 
79 126 
79 128 
79 130 
79 132 
79 134 
79 136 
79 137 
79 140 
79 142 
79 143 
79 145 
79 148 
79 149 
79 152 
79 154 
79 155 
79 157 
79 159 
79 161 
79 164 
79 165 
79 168 
79 170 
79 172 
79 173 
79 175 
80 90 
80 91 
80 93 
80 95 
80 98 
80 99 
80 102 
80 104 
80 106 
80 108 
80 110 
80 111 
80 113 
80 116 
80 117 
80 120 
80 121 
80 124 
80 125 
80 127 
80 129 
80 131 
80 133 
80 135 
80 138 
80 139 
80 141 
80 144 
80 146 
80 147 
80 150 
80 151 
80 153 
80 156 
80 158 
80 160 
80 162 
80 163 
80 166 
80 167 
80 169 
80 171 
80 174 
80 176 
81 82 
81 89 
81 91 
81 94 
81 95 
81 98 
81 99 
81 101 
81 104 
81 106 
81 107 
81 109 
81 112 
81 113 
81 115 
81 117 
81 120 
81 122 
81 124 
81 125 
81 128 
81 129 
81 131 
81 134 
81 135 
81 137 
81 140 
81 141 
81 144 
81 146 
81 148 
81 149 
81 152 
81 154 
81 155 
81 158 
81 160 
81 161 
81 164 
81 165 
81 168 
81 170 
81 171 
81 174 
81 176 
82 90 
82 92 
82 93 
82 96 
82 97 
82 100 
82 102 
82 103 
82 105 
82 108 
82 110 
82 111 
82 114 
82 116 
82 118 
82 119 
82 121 
82 123 
82 126 
82 127 
82 130 
82 132 
82 133 
82 136 
82 138 
82 139 
82 142 
82 143 
82 145 
82 147 
82 150 
82 151 
82 153 
82 156 
82 157 
82 159 
82 162 
82 163 
82 166 
82 167 
82 169 
82 172 
82 173 
82 175 
83 84 
83 89 
83 91 
83 93 
83 96 
83 98 
83 99 
83 101 
83 104 
83 106 
83 107 
83 110 
83 112 
83 114 
83 116 
83 117 
83 120 
83 122 
83 123 
83 126 
83 128 
83 130 
83 132 
83 134 
83 136 
83 137 
83 139 
83 142 
83 144 
83 145 
83 147 
83 150 
83 151 
83 153 
83 155 
83 158 
83 159 
83 161 
83 163 
83 166 
83 168 
83 169 
83 171 
83 173 
83 176 
84 90 
84 92 
84 94 
84 95 
84 97 
84 100 
84 102 
84 103 
84 105 
84 108 
84 109 
84 111 
84 113 
84 115 
84 118 
84 119 
84 121 
84 124 
84 125 
84 127 
84 129 
84 131 
84 133 
84 135 
84 138 
84 140 
84 141 
84 143 
84 146 
84 148 
84 149 
84 152 
84 154 
84 156 
84 157 
84 160 
84 162 
84 164 
84 165 
84 167 
84 170 
84 172 
84 174 
84 175 
85 86 
85 90 
85 91 
85 94 
85 96 
85 98 
85 100 
85 102 
85 103 
85 105 
85 107 
85 110 
85 112 
85 114 
85 115 
85 117 
85 120 
85 121 
85 123 
85 125 
85 127 
85 130 
85 132 
85 134 
85 135 
85 137 
85 140 
85 141 
85 143 
85 145 
85 147 
85 150 
85 151 
85 154 
85 156 
85 158 
85 160 
85 162 
85 163 
85 165 
85 168 
85 170 
85 171 
85 174 
85 175 
86 89 
86 92 
86 93 
86 95 
86 97 
86 99 
86 101 
86 104 
86 106 
86 108 
86 109 
86 111 
86 113 
86 116 
86 118 
86 119 
86 122 
86 124 
86 126 
86 128 
86 129 
86 131 
86 133 
86 136 
86 138 
86 139 
86 142 
86 144 
86 146 
86 148 
86 149 
86 152 
86 153 
86 155 
86 157 
86 159 
86 161 
86 164 
86 166 
86 167 
86 169 
86 172 
86 173 
86 176 
87 88 
87 90 
87 91 
87 93 
87 95 
87 97 
87 100 
87 102 
87 103 
87 105 
87 108 
87 109 
87 112 
87 113 
87 116 
87 117 
87 120 
87 122 
87 124 
87 126 
87 128 
87 129 
87 132 
87 134 
87 135 
87 137 
87 139 
87 141 
87 143 
87 145 
87 148 
87 150 
87 152 
87 153 
87 156 
87 157 
87 159 
87 162 
87 164 
87 166 
87 168 
87 170 
87 171 
87 173 
87 176 
88 89 
88 92 
88 94 
88 96 
88 98 
88 99 
88 101 
88 104 
88 106 
88 107 
88 110 
88 111 
88 114 
88 115 
88 118 
88 119 
88 121 
88 123 
88 125 
88 127 
88 130 
88 131 
88 133 
88 136 
88 138 
88 140 
88 142 
88 144 
88 146 
88 147 
88 149 
88 151 
88 154 
88 155 
88 158 
88 160 
88 161 
88 163 
88 165 
88 167 
88 169 
88 172 
88 174 
88 175 
89 90 
91 92 
93 94 
95 96 
97 98 
99 100 
101 102 
103 104 
105 106 
107 108 
109 110 
111 112 
113 114 
115 116 
117 118 
119 120 
121 122 
123 124 
125 126 
127 128 
129 130 
131 132 
133 134 
135 136 
137 138 
139 140 
141 142 
143 144 
145 146 
147 148 
149 150 
151 152 
153 154 
155 156 
157 158 
159 160 
161 162 
163 164 
165 166 
167 168 
169 170 
171 172 
173 174 
175 176 
